assets/logs/17_8x8_clingo/17_8x8_clingo.solution.log

---------------------------------
| 52| 46|  3| 25| 19|  2| 59| 13|
---------------------------------
| 22| 27| 50| 44|  5| 15| 21|  4|
---------------------------------
| 48| 54| 24| 17| 23| 57| 11|  1|
---------------------------------
| 26| 20| 29| 55| 42|  7|  6|  1|
---------------------------------
| 56| 53| 28| 18| 31| 45| 40|  9|
---------------------------------
|  1| 16| 58| 47| 34|  8| 37| 43|
---------------------------------
| 51| 30| 12|  1| 39| 33|  1| 38|
---------------------------------
| 14| 60| 49| 32| 10| 36| 41| 35|
---------------------------------

| n = 8 | k = 5 | coverage = 64, 100.0%
 Time 299.999
 Name 17_8x8_clingo

